NAME
ROWS
 N  OBJ
 G  c1
 G  c2
 G  c3
 G  c4
 G  c5
 G  c6
 G  c7
 G  c8
 G  c9
 G  c10
 G  c11
 G  c12
 G  c13
 G  c14
 G  c15
 G  c16
 G  c17
 G  c18
 G  c19
 G  c20
 G  c21
 G  c22
 G  c23
 G  c24
 G  c25
 G  c26
 G  c27
 G  c28
 G  c29
 G  c30
 G  c31
 G  c32
 G  c33
 G  c34
 G  c35
 G  c36
 G  c37
 G  c38
 G  c39
 G  c40
 G  c41
 G  c42
 G  c43
 G  c44
 G  c45
 G  c46
 G  c47
 G  c48
 G  c49
 G  c50
 G  c51
 G  c52
 G  c53
 G  c54
 G  c55
 G  c56
 G  c57
 G  c58
 G  c59
 G  c60
 G  c61
 G  c62
 G  c63
 G  c64
 G  c65
 G  c66
 G  c67
 G  c68
 G  c69
 G  c70
 G  c71
 G  c72
 G  c73
 G  c74
 G  c75
 G  c76
 G  c77
 G  c78
 G  c79
 G  c80
 G  c81
 G  c82
 G  c83
 G  c84
 G  c85
 G  c86
 G  c87
 G  c88
 G  c89
 G  c90
COLUMNS
    MARKER    'MARKER'                 'INTORG'
    x[1]      c1        1
    x[1]      c2        1
    x[1]      c27       1
    x[1]      c29       1
    x[1]      c35       1
    x[1]      c65       1
    x[1]      c67       1
    x[1]      c72       1
    x[1]      c82       1
    x[1]      OBJ       1
    x[2]      c1        1
    x[2]      c2        1
    x[2]      c7        1
    x[2]      c15       1
    x[2]      c19       1
    x[2]      c20       1
    x[2]      c30       1
    x[2]      c41       1
    x[2]      c46       1
    x[2]      c52       1
    x[2]      c56       1
    x[2]      c61       1
    x[2]      c68       1
    x[2]      c71       1
    x[2]      c81       1
    x[2]      OBJ       1
    x[3]      c3        1
    x[3]      c11       1
    x[3]      c20       1
    x[3]      c30       1
    x[3]      c45       1
    x[3]      c59       1
    x[3]      c69       1
    x[3]      OBJ       1
    x[4]      c4        1
    x[4]      c9        1
    x[4]      c28       1
    x[4]      c33       1
    x[4]      c35       1
    x[4]      c48       1
    x[4]      c52       1
    x[4]      c55       1
    x[4]      c63       1
    x[4]      c68       1
    x[4]      c69       1
    x[4]      c78       1
    x[4]      OBJ       1
    x[5]      c5        1
    x[5]      c53       1
    x[5]      c57       1
    x[5]      c58       1
    x[5]      c66       1
    x[5]      c73       1
    x[5]      c77       1
    x[5]      c81       1
    x[5]      c84       1
    x[5]      OBJ       1
    x[6]      c6        1
    x[6]      c8        1
    x[6]      c13       1
    x[6]      c14       1
    x[6]      c18       1
    x[6]      c22       1
    x[6]      c44       1
    x[6]      c68       1
    x[6]      c70       1
    x[6]      c86       1
    x[6]      OBJ       1
    x[7]      c2        1
    x[7]      c7        1
    x[7]      c14       1
    x[7]      c37       1
    x[7]      c46       1
    x[7]      c49       1
    x[7]      c56       1
    x[7]      c63       1
    x[7]      c73       1
    x[7]      c78       1
    x[7]      c85       1
    x[7]      OBJ       1
    x[8]      c6        1
    x[8]      c8        1
    x[8]      c15       1
    x[8]      c17       1
    x[8]      c32       1
    x[8]      c35       1
    x[8]      c40       1
    x[8]      c54       1
    x[8]      c59       1
    x[8]      c74       1
    x[8]      OBJ       1
    x[9]      c4        1
    x[9]      c9        1
    x[9]      c11       1
    x[9]      c12       1
    x[9]      c17       1
    x[9]      c21       1
    x[9]      c27       1
    x[9]      c52       1
    x[9]      c59       1
    x[9]      OBJ       1
    x[10]     c10       1
    x[10]     c23       1
    x[10]     c31       1
    x[10]     c39       1
    x[10]     c51       1
    x[10]     c52       1
    x[10]     c67       1
    x[10]     c68       1
    x[10]     c72       1
    x[10]     c74       1
    x[10]     c79       1
    x[10]     OBJ       1
    x[11]     c3        1
    x[11]     c9        1
    x[11]     c11       1
    x[11]     c12       1
    x[11]     c14       1
    x[11]     c15       1
    x[11]     c16       1
    x[11]     c24       1
    x[11]     c26       1
    x[11]     c53       1
    x[11]     c60       1
    x[11]     c73       1
    x[11]     c81       1
    x[11]     c82       1
    x[11]     c89       1
    x[11]     OBJ       1
    x[12]     c9        1
    x[12]     c11       1
    x[12]     c12       1
    x[12]     c20       1
    x[12]     c43       1
    x[12]     c74       1
    x[12]     c87       1
    x[12]     OBJ       1
    x[13]     c6        1
    x[13]     c13       1
    x[13]     c16       1
    x[13]     c35       1
    x[13]     c47       1
    x[13]     c48       1
    x[13]     c52       1
    x[13]     c53       1
    x[13]     c64       1
    x[13]     c66       1
    x[13]     c72       1
    x[13]     c73       1
    x[13]     c81       1
    x[13]     c82       1
    x[13]     c87       1
    x[13]     OBJ       1
    x[14]     c6        1
    x[14]     c7        1
    x[14]     c11       1
    x[14]     c14       1
    x[14]     c22       1
    x[14]     c24       1
    x[14]     c37       1
    x[14]     c48       1
    x[14]     c64       1
    x[14]     c65       1
    x[14]     c86       1
    x[14]     OBJ       1
    x[15]     c2        1
    x[15]     c8        1
    x[15]     c11       1
    x[15]     c15       1
    x[15]     c27       1
    x[15]     c31       1
    x[15]     c43       1
    x[15]     c45       1
    x[15]     c46       1
    x[15]     c55       1
    x[15]     c62       1
    x[15]     c79       1
    x[15]     c80       1
    x[15]     c86       1
    x[15]     OBJ       1
    x[16]     c11       1
    x[16]     c13       1
    x[16]     c16       1
    x[16]     c25       1
    x[16]     c31       1
    x[16]     c54       1
    x[16]     c66       1
    x[16]     c77       1
    x[16]     c85       1
    x[16]     OBJ       1
    x[17]     c8        1
    x[17]     c9        1
    x[17]     c17       1
    x[17]     c29       1
    x[17]     c34       1
    x[17]     c42       1
    x[17]     c52       1
    x[17]     c68       1
    x[17]     OBJ       1
    x[18]     c6        1
    x[18]     c18       1
    x[18]     c20       1
    x[18]     c35       1
    x[18]     c38       1
    x[18]     c40       1
    x[18]     c41       1
    x[18]     c45       1
    x[18]     c55       1
    x[18]     c72       1
    x[18]     c76       1
    x[18]     c77       1
    x[18]     c80       1
    x[18]     OBJ       1
    x[19]     c2        1
    x[19]     c19       1
    x[19]     c21       1
    x[19]     c27       1
    x[19]     c70       1
    x[19]     c78       1
    x[19]     OBJ       1
    x[20]     c2        1
    x[20]     c3        1
    x[20]     c12       1
    x[20]     c18       1
    x[20]     c20       1
    x[20]     c29       1
    x[20]     c31       1
    x[20]     c32       1
    x[20]     c33       1
    x[20]     c48       1
    x[20]     c49       1
    x[20]     c53       1
    x[20]     c72       1
    x[20]     c74       1
    x[20]     c78       1
    x[20]     c88       1
    x[20]     OBJ       1
    x[21]     c9        1
    x[21]     c19       1
    x[21]     c21       1
    x[21]     c26       1
    x[21]     c81       1
    x[21]     c82       1
    x[21]     c83       1
    x[21]     c84       1
    x[21]     OBJ       1
    x[22]     c6        1
    x[22]     c14       1
    x[22]     c22       1
    x[22]     c24       1
    x[22]     c35       1
    x[22]     c36       1
    x[22]     c45       1
    x[22]     c49       1
    x[22]     c66       1
    x[22]     c68       1
    x[22]     c73       1
    x[22]     c75       1
    x[22]     OBJ       1
    x[23]     c10       1
    x[23]     c23       1
    x[23]     c30       1
    x[23]     c31       1
    x[23]     c36       1
    x[23]     c41       1
    x[23]     c73       1
    x[23]     c81       1
    x[23]     OBJ       1
    x[24]     c11       1
    x[24]     c14       1
    x[24]     c22       1
    x[24]     c24       1
    x[24]     c35       1
    x[24]     c37       1
    x[24]     c48       1
    x[24]     c78       1
    x[24]     c85       1
    x[24]     OBJ       1
    x[25]     c16       1
    x[25]     c25       1
    x[25]     c31       1
    x[25]     c32       1
    x[25]     c34       1
    x[25]     c36       1
    x[25]     c38       1
    x[25]     c74       1
    x[25]     c85       1
    x[25]     OBJ       1
    x[26]     c11       1
    x[26]     c21       1
    x[26]     c26       1
    x[26]     c64       1
    x[26]     c78       1
    x[26]     OBJ       1
    x[27]     c1        1
    x[27]     c9        1
    x[27]     c15       1
    x[27]     c19       1
    x[27]     c27       1
    x[27]     c32       1
    x[27]     c41       1
    x[27]     c42       1
    x[27]     c57       1
    x[27]     c60       1
    x[27]     c69       1
    x[27]     c71       1
    x[27]     OBJ       1
    x[28]     c4        1
    x[28]     c28       1
    x[28]     c57       1
    x[28]     c61       1
    x[28]     c67       1
    x[28]     c75       1
    x[28]     OBJ       1
    x[29]     c1        1
    x[29]     c17       1
    x[29]     c20       1
    x[29]     c29       1
    x[29]     c74       1
    x[29]     OBJ       1
    x[30]     c2        1
    x[30]     c3        1
    x[30]     c23       1
    x[30]     c30       1
    x[30]     c35       1
    x[30]     OBJ       1
    x[31]     c10       1
    x[31]     c15       1
    x[31]     c16       1
    x[31]     c20       1
    x[31]     c23       1
    x[31]     c25       1
    x[31]     c31       1
    x[31]     c44       1
    x[31]     c48       1
    x[31]     c52       1
    x[31]     c64       1
    x[31]     c72       1
    x[31]     c80       1
    x[31]     OBJ       1
    x[32]     c8        1
    x[32]     c20       1
    x[32]     c25       1
    x[32]     c27       1
    x[32]     c32       1
    x[32]     c35       1
    x[32]     c50       1
    x[32]     c51       1
    x[32]     c59       1
    x[32]     c62       1
    x[32]     c79       1
    x[32]     c85       1
    x[32]     OBJ       1
    x[33]     c4        1
    x[33]     c20       1
    x[33]     c33       1
    x[33]     c58       1
    x[33]     c59       1
    x[33]     c60       1
    x[33]     c68       1
    x[33]     c72       1
    x[33]     c74       1
    x[33]     OBJ       1
    x[34]     c17       1
    x[34]     c25       1
    x[34]     c34       1
    x[34]     c46       1
    x[34]     c56       1
    x[34]     c58       1
    x[34]     c59       1
    x[34]     OBJ       1
    x[35]     c1        1
    x[35]     c4        1
    x[35]     c8        1
    x[35]     c13       1
    x[35]     c18       1
    x[35]     c22       1
    x[35]     c24       1
    x[35]     c30       1
    x[35]     c32       1
    x[35]     c35       1
    x[35]     c63       1
    x[35]     c69       1
    x[35]     c70       1
    x[35]     c76       1
    x[35]     c82       1
    x[35]     c86       1
    x[35]     OBJ       1
    x[36]     c22       1
    x[36]     c23       1
    x[36]     c25       1
    x[36]     c36       1
    x[36]     c55       1
    x[36]     c79       1
    x[36]     OBJ       1
    x[37]     c7        1
    x[37]     c14       1
    x[37]     c24       1
    x[37]     c37       1
    x[37]     c47       1
    x[37]     c52       1
    x[37]     c64       1
    x[37]     OBJ       1
    x[38]     c18       1
    x[38]     c25       1
    x[38]     c38       1
    x[38]     c39       1
    x[38]     c44       1
    x[38]     c57       1
    x[38]     c69       1
    x[38]     c79       1
    x[38]     OBJ       1
    x[39]     c10       1
    x[39]     c38       1
    x[39]     c39       1
    x[39]     c44       1
    x[39]     c76       1
    x[39]     c84       1
    x[39]     c90       1
    x[39]     OBJ       1
    x[40]     c8        1
    x[40]     c18       1
    x[40]     c40       1
    x[40]     c70       1
    x[40]     c84       1
    x[40]     OBJ       1
    x[41]     c2        1
    x[41]     c18       1
    x[41]     c23       1
    x[41]     c27       1
    x[41]     c41       1
    x[41]     c59       1
    x[41]     c61       1
    x[41]     c63       1
    x[41]     c86       1
    x[41]     c87       1
    x[41]     OBJ       1
    x[42]     c17       1
    x[42]     c27       1
    x[42]     c42       1
    x[42]     c43       1
    x[42]     c53       1
    x[42]     c58       1
    x[42]     c67       1
    x[42]     c82       1
    x[42]     c83       1
    x[42]     c85       1
    x[42]     OBJ       1
    x[43]     c12       1
    x[43]     c15       1
    x[43]     c42       1
    x[43]     c43       1
    x[43]     c67       1
    x[43]     c73       1
    x[43]     c79       1
    x[43]     OBJ       1
    x[44]     c6        1
    x[44]     c31       1
    x[44]     c38       1
    x[44]     c39       1
    x[44]     c44       1
    x[44]     c45       1
    x[44]     c46       1
    x[44]     c47       1
    x[44]     c48       1
    x[44]     c50       1
    x[44]     c52       1
    x[44]     c76       1
    x[44]     c79       1
    x[44]     OBJ       1
    x[45]     c3        1
    x[45]     c15       1
    x[45]     c18       1
    x[45]     c22       1
    x[45]     c44       1
    x[45]     c45       1
    x[45]     c65       1
    x[45]     c74       1
    x[45]     c78       1
    x[45]     OBJ       1
    x[46]     c2        1
    x[46]     c7        1
    x[46]     c15       1
    x[46]     c34       1
    x[46]     c44       1
    x[46]     c46       1
    x[46]     c64       1
    x[46]     c71       1
    x[46]     c76       1
    x[46]     c88       1
    x[46]     OBJ       1
    x[47]     c13       1
    x[47]     c37       1
    x[47]     c44       1
    x[47]     c47       1
    x[47]     c49       1
    x[47]     c55       1
    x[47]     c63       1
    x[47]     c73       1
    x[47]     c80       1
    x[47]     c83       1
    x[47]     OBJ       1
    x[48]     c4        1
    x[48]     c13       1
    x[48]     c14       1
    x[48]     c20       1
    x[48]     c24       1
    x[48]     c31       1
    x[48]     c44       1
    x[48]     c48       1
    x[48]     c72       1
    x[48]     c81       1
    x[48]     c82       1
    x[48]     c84       1
    x[48]     OBJ       1
    x[49]     c7        1
    x[49]     c20       1
    x[49]     c22       1
    x[49]     c47       1
    x[49]     c49       1
    x[49]     c50       1
    x[49]     c63       1
    x[49]     c67       1
    x[49]     c68       1
    x[49]     c71       1
    x[49]     c72       1
    x[49]     c82       1
    x[49]     c87       1
    x[49]     c88       1
    x[49]     OBJ       1
    x[50]     c32       1
    x[50]     c44       1
    x[50]     c49       1
    x[50]     c50       1
    x[50]     c60       1
    x[50]     c74       1
    x[50]     OBJ       1
    x[51]     c10       1
    x[51]     c32       1
    x[51]     c51       1
    x[51]     c63       1
    x[51]     c74       1
    x[51]     c75       1
    x[51]     c86       1
    x[51]     c89       1
    x[51]     OBJ       1
    x[52]     c2        1
    x[52]     c4        1
    x[52]     c9        1
    x[52]     c10       1
    x[52]     c13       1
    x[52]     c17       1
    x[52]     c31       1
    x[52]     c37       1
    x[52]     c44       1
    x[52]     c52       1
    x[52]     c65       1
    x[52]     c76       1
    x[52]     c85       1
    x[52]     OBJ       1
    x[53]     c5        1
    x[53]     c11       1
    x[53]     c13       1
    x[53]     c20       1
    x[53]     c42       1
    x[53]     c53       1
    x[53]     c62       1
    x[53]     c75       1
    x[53]     OBJ       1
    x[54]     c8        1
    x[54]     c16       1
    x[54]     c54       1
    x[54]     c88       1
    x[54]     c90       1
    x[54]     OBJ       1
    x[55]     c4        1
    x[55]     c15       1
    x[55]     c18       1
    x[55]     c36       1
    x[55]     c47       1
    x[55]     c55       1
    x[55]     c60       1
    x[55]     c63       1
    x[55]     c64       1
    x[55]     c66       1
    x[55]     c74       1
    x[55]     OBJ       1
    x[56]     c2        1
    x[56]     c7        1
    x[56]     c34       1
    x[56]     c56       1
    x[56]     c72       1
    x[56]     c79       1
    x[56]     c90       1
    x[56]     OBJ       1
    x[57]     c5        1
    x[57]     c27       1
    x[57]     c28       1
    x[57]     c38       1
    x[57]     c57       1
    x[57]     c60       1
    x[57]     c83       1
    x[57]     c86       1
    x[57]     OBJ       1
    x[58]     c5        1
    x[58]     c33       1
    x[58]     c34       1
    x[58]     c42       1
    x[58]     c58       1
    x[58]     c62       1
    x[58]     c74       1
    x[58]     c77       1
    x[58]     c89       1
    x[58]     c90       1
    x[58]     OBJ       1
    x[59]     c3        1
    x[59]     c8        1
    x[59]     c9        1
    x[59]     c32       1
    x[59]     c33       1
    x[59]     c34       1
    x[59]     c41       1
    x[59]     c59       1
    x[59]     c67       1
    x[59]     c78       1
    x[59]     c89       1
    x[59]     OBJ       1
    x[60]     c11       1
    x[60]     c27       1
    x[60]     c33       1
    x[60]     c50       1
    x[60]     c55       1
    x[60]     c57       1
    x[60]     c60       1
    x[60]     c61       1
    x[60]     c79       1
    x[60]     c90       1
    x[60]     OBJ       1
    x[61]     c2        1
    x[61]     c28       1
    x[61]     c41       1
    x[61]     c60       1
    x[61]     c61       1
    x[61]     c80       1
    x[61]     c85       1
    x[61]     OBJ       1
    x[62]     c15       1
    x[62]     c32       1
    x[62]     c53       1
    x[62]     c58       1
    x[62]     c62       1
    x[62]     c78       1
    x[62]     c79       1
    x[62]     c82       1
    x[62]     OBJ       1
    x[63]     c4        1
    x[63]     c7        1
    x[63]     c35       1
    x[63]     c41       1
    x[63]     c47       1
    x[63]     c49       1
    x[63]     c51       1
    x[63]     c55       1
    x[63]     c63       1
    x[63]     c76       1
    x[63]     OBJ       1
    x[64]     c13       1
    x[64]     c14       1
    x[64]     c26       1
    x[64]     c31       1
    x[64]     c37       1
    x[64]     c46       1
    x[64]     c55       1
    x[64]     c64       1
    x[64]     c76       1
    x[64]     c84       1
    x[64]     OBJ       1
    x[65]     c1        1
    x[65]     c14       1
    x[65]     c45       1
    x[65]     c52       1
    x[65]     c65       1
    x[65]     c76       1
    x[65]     c85       1
    x[65]     OBJ       1
    x[66]     c5        1
    x[66]     c13       1
    x[66]     c16       1
    x[66]     c22       1
    x[66]     c55       1
    x[66]     c66       1
    x[66]     c71       1
    x[66]     c88       1
    x[66]     OBJ       1
    x[67]     c1        1
    x[67]     c10       1
    x[67]     c28       1
    x[67]     c42       1
    x[67]     c43       1
    x[67]     c49       1
    x[67]     c59       1
    x[67]     c67       1
    x[67]     c73       1
    x[67]     c76       1
    x[67]     c77       1
    x[67]     c86       1
    x[67]     OBJ       1
    x[68]     c2        1
    x[68]     c4        1
    x[68]     c6        1
    x[68]     c10       1
    x[68]     c17       1
    x[68]     c22       1
    x[68]     c33       1
    x[68]     c49       1
    x[68]     c68       1
    x[68]     OBJ       1
    x[69]     c3        1
    x[69]     c4        1
    x[69]     c27       1
    x[69]     c35       1
    x[69]     c38       1
    x[69]     c69       1
    x[69]     c75       1
    x[69]     c78       1
    x[69]     c85       1
    x[69]     OBJ       1
    x[70]     c6        1
    x[70]     c19       1
    x[70]     c35       1
    x[70]     c40       1
    x[70]     c70       1
    x[70]     c72       1
    x[70]     c73       1
    x[70]     c80       1
    x[70]     c81       1
    x[70]     c89       1
    x[70]     OBJ       1
    x[71]     c2        1
    x[71]     c27       1
    x[71]     c46       1
    x[71]     c49       1
    x[71]     c66       1
    x[71]     c71       1
    x[71]     OBJ       1
    x[72]     c1        1
    x[72]     c10       1
    x[72]     c13       1
    x[72]     c18       1
    x[72]     c20       1
    x[72]     c31       1
    x[72]     c33       1
    x[72]     c48       1
    x[72]     c49       1
    x[72]     c56       1
    x[72]     c70       1
    x[72]     c72       1
    x[72]     c78       1
    x[72]     OBJ       1
    x[73]     c5        1
    x[73]     c7        1
    x[73]     c11       1
    x[73]     c13       1
    x[73]     c22       1
    x[73]     c23       1
    x[73]     c43       1
    x[73]     c47       1
    x[73]     c67       1
    x[73]     c70       1
    x[73]     c73       1
    x[73]     c75       1
    x[73]     OBJ       1
    x[74]     c8        1
    x[74]     c10       1
    x[74]     c12       1
    x[74]     c20       1
    x[74]     c25       1
    x[74]     c29       1
    x[74]     c33       1
    x[74]     c45       1
    x[74]     c50       1
    x[74]     c51       1
    x[74]     c55       1
    x[74]     c58       1
    x[74]     c74       1
    x[74]     c76       1
    x[74]     c88       1
    x[74]     c89       1
    x[74]     OBJ       1
    x[75]     c22       1
    x[75]     c28       1
    x[75]     c51       1
    x[75]     c53       1
    x[75]     c69       1
    x[75]     c73       1
    x[75]     c75       1
    x[75]     c86       1
    x[75]     c87       1
    x[75]     c88       1
    x[75]     c90       1
    x[75]     OBJ       1
    x[76]     c18       1
    x[76]     c35       1
    x[76]     c39       1
    x[76]     c44       1
    x[76]     c46       1
    x[76]     c52       1
    x[76]     c63       1
    x[76]     c64       1
    x[76]     c65       1
    x[76]     c67       1
    x[76]     c74       1
    x[76]     c76       1
    x[76]     c81       1
    x[76]     c83       1
    x[76]     c89       1
    x[76]     OBJ       1
    x[77]     c5        1
    x[77]     c16       1
    x[77]     c18       1
    x[77]     c58       1
    x[77]     c67       1
    x[77]     c77       1
    x[77]     c84       1
    x[77]     OBJ       1
    x[78]     c4        1
    x[78]     c7        1
    x[78]     c19       1
    x[78]     c20       1
    x[78]     c24       1
    x[78]     c26       1
    x[78]     c45       1
    x[78]     c59       1
    x[78]     c62       1
    x[78]     c69       1
    x[78]     c72       1
    x[78]     c78       1
    x[78]     c79       1
    x[78]     OBJ       1
    x[79]     c10       1
    x[79]     c15       1
    x[79]     c32       1
    x[79]     c36       1
    x[79]     c38       1
    x[79]     c43       1
    x[79]     c44       1
    x[79]     c56       1
    x[79]     c60       1
    x[79]     c62       1
    x[79]     c78       1
    x[79]     c79       1
    x[79]     c82       1
    x[79]     c83       1
    x[79]     c84       1
    x[79]     c85       1
    x[79]     OBJ       1
    x[80]     c15       1
    x[80]     c18       1
    x[80]     c31       1
    x[80]     c47       1
    x[80]     c61       1
    x[80]     c70       1
    x[80]     c80       1
    x[80]     OBJ       1
    x[81]     c2        1
    x[81]     c5        1
    x[81]     c11       1
    x[81]     c13       1
    x[81]     c21       1
    x[81]     c23       1
    x[81]     c48       1
    x[81]     c70       1
    x[81]     c76       1
    x[81]     c81       1
    x[81]     c84       1
    x[81]     c89       1
    x[81]     OBJ       1
    x[82]     c1        1
    x[82]     c11       1
    x[82]     c13       1
    x[82]     c21       1
    x[82]     c35       1
    x[82]     c42       1
    x[82]     c48       1
    x[82]     c49       1
    x[82]     c62       1
    x[82]     c79       1
    x[82]     c82       1
    x[82]     c90       1
    x[82]     OBJ       1
    x[83]     c21       1
    x[83]     c42       1
    x[83]     c47       1
    x[83]     c57       1
    x[83]     c76       1
    x[83]     c79       1
    x[83]     c83       1
    x[83]     c87       1
    x[83]     OBJ       1
    x[84]     c5        1
    x[84]     c21       1
    x[84]     c39       1
    x[84]     c40       1
    x[84]     c48       1
    x[84]     c64       1
    x[84]     c77       1
    x[84]     c79       1
    x[84]     c81       1
    x[84]     c84       1
    x[84]     c90       1
    x[84]     OBJ       1
    x[85]     c7        1
    x[85]     c16       1
    x[85]     c24       1
    x[85]     c25       1
    x[85]     c32       1
    x[85]     c42       1
    x[85]     c52       1
    x[85]     c61       1
    x[85]     c65       1
    x[85]     c69       1
    x[85]     c79       1
    x[85]     c85       1
    x[85]     c87       1
    x[85]     c90       1
    x[85]     OBJ       1
    x[86]     c6        1
    x[86]     c14       1
    x[86]     c15       1
    x[86]     c35       1
    x[86]     c41       1
    x[86]     c51       1
    x[86]     c57       1
    x[86]     c67       1
    x[86]     c75       1
    x[86]     c86       1
    x[86]     c89       1
    x[86]     OBJ       1
    x[87]     c12       1
    x[87]     c13       1
    x[87]     c41       1
    x[87]     c49       1
    x[87]     c75       1
    x[87]     c83       1
    x[87]     c85       1
    x[87]     c87       1
    x[87]     c89       1
    x[87]     OBJ       1
    x[88]     c20       1
    x[88]     c46       1
    x[88]     c49       1
    x[88]     c54       1
    x[88]     c66       1
    x[88]     c74       1
    x[88]     c75       1
    x[88]     c88       1
    x[88]     OBJ       1
    x[89]     c11       1
    x[89]     c51       1
    x[89]     c58       1
    x[89]     c59       1
    x[89]     c70       1
    x[89]     c74       1
    x[89]     c76       1
    x[89]     c81       1
    x[89]     c86       1
    x[89]     c87       1
    x[89]     c89       1
    x[89]     OBJ       1
    x[90]     c39       1
    x[90]     c54       1
    x[90]     c56       1
    x[90]     c58       1
    x[90]     c60       1
    x[90]     c75       1
    x[90]     c82       1
    x[90]     c84       1
    x[90]     c85       1
    x[90]     c90       1
    x[90]     OBJ       1
    MARKER    'MARKER'                 'INTEND'
RHS
    rhs       c1        1
    rhs       c2        1
    rhs       c3        1
    rhs       c4        1
    rhs       c5        1
    rhs       c6        1
    rhs       c7        1
    rhs       c8        1
    rhs       c9        1
    rhs       c10       1
    rhs       c11       1
    rhs       c12       1
    rhs       c13       1
    rhs       c14       1
    rhs       c15       1
    rhs       c16       1
    rhs       c17       1
    rhs       c18       1
    rhs       c19       1
    rhs       c20       1
    rhs       c21       1
    rhs       c22       1
    rhs       c23       1
    rhs       c24       1
    rhs       c25       1
    rhs       c26       1
    rhs       c27       1
    rhs       c28       1
    rhs       c29       1
    rhs       c30       1
    rhs       c31       1
    rhs       c32       1
    rhs       c33       1
    rhs       c34       1
    rhs       c35       1
    rhs       c36       1
    rhs       c37       1
    rhs       c38       1
    rhs       c39       1
    rhs       c40       1
    rhs       c41       1
    rhs       c42       1
    rhs       c43       1
    rhs       c44       1
    rhs       c45       1
    rhs       c46       1
    rhs       c47       1
    rhs       c48       1
    rhs       c49       1
    rhs       c50       1
    rhs       c51       1
    rhs       c52       1
    rhs       c53       1
    rhs       c54       1
    rhs       c55       1
    rhs       c56       1
    rhs       c57       1
    rhs       c58       1
    rhs       c59       1
    rhs       c60       1
    rhs       c61       1
    rhs       c62       1
    rhs       c63       1
    rhs       c64       1
    rhs       c65       1
    rhs       c66       1
    rhs       c67       1
    rhs       c68       1
    rhs       c69       1
    rhs       c70       1
    rhs       c71       1
    rhs       c72       1
    rhs       c73       1
    rhs       c74       1
    rhs       c75       1
    rhs       c76       1
    rhs       c77       1
    rhs       c78       1
    rhs       c79       1
    rhs       c80       1
    rhs       c81       1
    rhs       c82       1
    rhs       c83       1
    rhs       c84       1
    rhs       c85       1
    rhs       c86       1
    rhs       c87       1
    rhs       c88       1
    rhs       c89       1
    rhs       c90       1
RANGES
BOUNDS
 BV bounds    x[1]
 BV bounds    x[2]
 BV bounds    x[3]
 BV bounds    x[4]
 BV bounds    x[5]
 BV bounds    x[6]
 BV bounds    x[7]
 BV bounds    x[8]
 BV bounds    x[9]
 BV bounds    x[10]
 BV bounds    x[11]
 BV bounds    x[12]
 BV bounds    x[13]
 BV bounds    x[14]
 BV bounds    x[15]
 BV bounds    x[16]
 BV bounds    x[17]
 BV bounds    x[18]
 BV bounds    x[19]
 BV bounds    x[20]
 BV bounds    x[21]
 BV bounds    x[22]
 BV bounds    x[23]
 BV bounds    x[24]
 BV bounds    x[25]
 BV bounds    x[26]
 BV bounds    x[27]
 BV bounds    x[28]
 BV bounds    x[29]
 BV bounds    x[30]
 BV bounds    x[31]
 BV bounds    x[32]
 BV bounds    x[33]
 BV bounds    x[34]
 BV bounds    x[35]
 BV bounds    x[36]
 BV bounds    x[37]
 BV bounds    x[38]
 BV bounds    x[39]
 BV bounds    x[40]
 BV bounds    x[41]
 BV bounds    x[42]
 BV bounds    x[43]
 BV bounds    x[44]
 BV bounds    x[45]
 BV bounds    x[46]
 BV bounds    x[47]
 BV bounds    x[48]
 BV bounds    x[49]
 BV bounds    x[50]
 BV bounds    x[51]
 BV bounds    x[52]
 BV bounds    x[53]
 BV bounds    x[54]
 BV bounds    x[55]
 BV bounds    x[56]
 BV bounds    x[57]
 BV bounds    x[58]
 BV bounds    x[59]
 BV bounds    x[60]
 BV bounds    x[61]
 BV bounds    x[62]
 BV bounds    x[63]
 BV bounds    x[64]
 BV bounds    x[65]
 BV bounds    x[66]
 BV bounds    x[67]
 BV bounds    x[68]
 BV bounds    x[69]
 BV bounds    x[70]
 BV bounds    x[71]
 BV bounds    x[72]
 BV bounds    x[73]
 BV bounds    x[74]
 BV bounds    x[75]
 BV bounds    x[76]
 BV bounds    x[77]
 BV bounds    x[78]
 BV bounds    x[79]
 BV bounds    x[80]
 BV bounds    x[81]
 BV bounds    x[82]
 BV bounds    x[83]
 BV bounds    x[84]
 BV bounds    x[85]
 BV bounds    x[86]
 BV bounds    x[87]
 BV bounds    x[88]
 BV bounds    x[89]
 BV bounds    x[90]
ENDATA
